47 60
1 5 1
2 6 2
6 3 2
3 2 1
4 1 1
5 3 1
4 4 1
6 2 1
3 9 1
7 2 1
8 8 1
3 1 2
10 5 1
1 10 1
3 8 2
3 4 1
5 8 1
7 9 1
9 1 1
5 9 2
2 9 1
4 10 1
7 5 2
10 4 1
9 3 1
3 6 2
6 4 1
2 8 1
10 3 1
2 10 1
7 6 1
10 1 1
9 5 1
5 4 2
8 7 1
4 7 2
6 10 2
9 4 1
2 7 1
5 7 2
1 2 2
5 1 1
5 10 1
9 10 2
1 9 1
3 10 1
4 5 1
10 10 
10 10 
10 10 
10 10 
10 10 
10 10 
10 10 
10 10 
10 10 
10 10 
10 10 
10 10 
10 10 
10 10 
10 10 
10 10 
10 10 
10 10 
10 10 
10 10 
10 10 
10 10 
10 10 
10 10 
10 10 
10 10 
10 10 
10 10 
10 10 
10 10 
10 10 
10 10 
10 10 
10 10 
10 10 
10 10 
10 10 
10 10 
10 10 
10 10 
10 10 
10 10 
10 10 
10 10 
10 10 
10 10 
10 10 
10 10 
10 10 
10 10 
10 10 
10 10 
10 10 
10 10 
10 10 
10 10 
10 10 
10 10 
10 10 
10 10 
